LengthSchedulingHorizon=3002;
nAttributes=2;
SetupCosts=[[0, 0], [17, 7], [7, 13]];
SetupTimes=[[0, 0], [6, 23], [23, 20]];
nMachines=5;
MinCap=[0, 0, 0, 0, 0];
MaxCap=[85, 87, 54, 53, 49];

initState=[1, 2, 2, 2, 2];
nShifts=5;
ShiftStartTimes = [[0, 0, 0, 0, 586], [0, 358, 616, 2389, 2744], [0, 532, 1030, 1060, 1928], [0, 0, 0, 0, 56], [392, 1012, 1753, 1974, 2216]];
ShiftEndTimes = [[0, 0, 0, 0, 2518], [0, 605, 2079, 2721, 2951], [0, 910, 1055, 1751, 2999], [0, 0, 0, 0, 2973], [868, 1580, 1951, 2194, 2924]];
nJobs=25;
EligibleMachines = [{1, 2, 4, 5}, {3}, {2, 3, 5}, {2, 5}, {2, 5}, {1, 3, 4, 5}, {1, 3, 4}, {3, 5}, {1, 2, 3, 5}, {3, 4}, {1, 3, 4, 5}, {2, 3}, {1, 2, 3, 4, 5}, {1, 3, 4, 5}, {1, 3, 4, 5}, {1, 2, 3, 4, 5}, {1, 3, 4}, {3, 5}, {1, 2, 3}, {2, 3}, {2, 3, 5}, {1, 2, 4, 5}, {1, 2, 3}, {1, 4, 5}, {2, 3, 4}];
EarliestStart=[12, 31, 469, 208, 569, 587, 361, 476, 427, 113, 212, 607, 258, 525, 327, 241, 540, 560, 135, 71, 369, 429, 62, 1, 93];
LatestEnd=[188, 84, 685, 435, 718, 759, 618, 481, 496, 282, 238, 850, 326, 529, 694, 372, 616, 895, 463, 427, 492, 456, 152, 19, 312];
MinTime=[36, 40, 91, 56, 53, 54, 79, 3, 22, 64, 12, 87, 28, 1, 82, 27, 60, 98, 71, 74, 49, 12, 51, 13, 58];
MaxTime=[100, 100, 100, 100, 100, 100, 100, 100, 100, 100, 100, 100, 100, 100, 100, 100, 100, 100, 100, 100, 100, 100, 100, 100, 100];
JobSize=[11, 12, 13, 4, 5, 12, 3, 11, 18, 12, 11, 9, 14, 5, 1, 4, 12, 19, 4, 1, 19, 14, 11, 15, 17];
Attribute=[1, 2, 1, 1, 1, 2, 1, 1, 1, 2, 2, 1, 2, 2, 1, 2, 1, 1, 2, 1, 1, 1, 1, 2, 1];

upper_bound_integer_objective=50292375;
mult_factor_total_runtime=1564;
mult_factor_finished_toolate=1915900;
mult_factor_total_setuptimes=0;
mult_factor_total_setupcosts=1127;
running_time_bound=1221;
min_duration=1;
max_duration=98;
max_setup_time=23;
max_setup_cost=17;
